0	63	50	197	92	30	111	90	186	184	173	
135	0	131	181	40	150	98	116	68	160	150	
58	164	0	189	43	72	77	148	187	140	92	
53	111	36	0	148	76	93	112	162	138	31	
76	133	87	107	0	99	153	52	129	182	181	
125	131	102	175	141	0	117	167	109	68	136	
195	62	131	145	28	117	0	194	182	72	71	
200	105	120	26	115	40	58	0	40	49	77	
185	25	86	77	102	50	149	171	0	118	27	
182	28	199	52	85	39	154	161	99	0	139	
136	118	56	179	199	130	34	111	105	147	0	
